12 66
1 2 3
1 3 5
1 4 1
1 5 3
1 6 5
1 7 1
1 8 5
1 9 2
1 10 2
1 11 1
1 12 2
2 3 3
2 4 5
2 5 5
2 6 3
2 7 1
2 8 1
2 9 1
2 10 2
2 11 2
2 12 2
3 4 2
3 5 3
3 6 5
3 7 2
3 8 5
3 9 4
3 10 5
3 11 5
3 12 4
4 5 3
4 6 5
4 7 2
4 8 1
4 9 4
4 10 1
4 11 5
4 12 1
5 6 3
5 7 2
5 8 4
5 9 3
5 10 5
5 11 3
5 12 3
6 7 4
6 8 2
6 9 2
6 10 4
6 11 2
6 12 4
7 8 2
7 9 4
7 10 4
7 11 2
7 12 1
8 9 1
8 10 3
8 11 3
8 12 1
9 10 1
9 11 3
9 12 3
10 11 3
10 12 3
11 12 4
